OBJ 27624394.0
15 21
21 22
21 9
8 23
23 2
23 24
22 7
36 20
36 13
7 25
25 14
25 17
24 14
34 12
34 35
17 35
35 39
16 32
32 31
32 33
31 44
33 12
44 50
39 40
40 4
43 49
43 13
48 4
48 49
49 5
50 10
50 6
6 55
55 18
55 56
5 54
54 1
54 19
56 57
57 3
57 11
